p cnf 220 746
c p weight 88 -1 0
c p weight -88 1 0
c p weight 90 6.12323399573676603586882014729198302312846062338790031898128063403419218957424163818359375E-17 0
c p weight -90 1 0
c p weight 91 1 0
c p weight -91 1 0
c p weight 92 -1 0
c p weight -92 1 0
c p weight 94 -1 0
c p weight -94 1 0
c p weight 97 -1 0
c p weight -97 1 0
c p weight 100 -1 0
c p weight -100 1 0
c p weight 103 -1 0
c p weight -103 1 0
c p weight 106 -1 0
c p weight -106 1 0
c p weight 109 -1 0
c p weight -109 1 0
c p weight 112 -1 0
c p weight -112 1 0
c p weight 115 -1 0
c p weight -115 1 0
c p weight 118 -1 0
c p weight -118 1 0
c p weight 121 -1 0
c p weight -121 1 0
c p weight 124 -1 0
c p weight -124 1 0
c p weight 127 -1 0
c p weight -127 1 0
c p weight 130 -1 0
c p weight -130 1 0
c p weight 133 -1 0
c p weight -133 1 0
c p weight 136 -1 0
c p weight -136 1 0
c p weight 139 -1 0
c p weight -139 1 0
c p weight 142 -1 0
c p weight -142 1 0
c p weight 145 -1 0
c p weight -145 1 0
c p weight 148 -1 0
c p weight -148 1 0
c p weight 151 -1 0
c p weight -151 1 0
c p weight 154 -1 0
c p weight -154 1 0
c p weight 157 -1 0
c p weight -157 1 0
c p weight 160 -1 0
c p weight -160 1 0
c p weight 163 -1 0
c p weight -163 1 0
c p weight 166 -1 0
c p weight -166 1 0
c p weight 169 -1 0
c p weight -169 1 0
c p weight 172 -1 0
c p weight -172 1 0
c p weight 175 -1 0
c p weight -175 1 0
c p weight 178 -1 0
c p weight -178 1 0
c p weight 181 -1 0
c p weight -181 1 0
c p weight 184 -1 0
c p weight -184 1 0
c p weight 187 -1 0
c p weight -187 1 0
c p weight 190 -1 0
c p weight -190 1 0
c p weight 193 -1 0
c p weight -193 1 0
c p weight 196 -1 0
c p weight -196 1 0
c p weight 199 -1 0
c p weight -199 1 0
c p weight 202 -1 0
c p weight -202 1 0
c p weight 205 -1 0
c p weight -205 1 0
c p weight 208 -1 0
c p weight -208 1 0
c p weight 211 -1 0
c p weight -211 1 0
c p weight 214 -1 0
c p weight -214 1 0
c p weight 217 -1 0
c p weight -217 1 0
c p weight 220 -1 0
c p weight -220 1 0
-85 0
-83 0
-81 0
-79 0
-77 0
-75 0
-73 0
-71 0
-69 0
-67 0
-65 0
-63 0
-61 0
-59 0
-57 0
-55 0
-53 0
-51 0
-49 0
-47 0
-45 0
-43 0
-41 0
-39 0
-37 0
-35 0
-33 0
-31 0
-29 0
-27 0
-25 0
-23 0
-21 0
-19 0
-17 0
-15 0
-13 0
-11 0
-9 0
-7 0
-5 0
-3 0
-1 0
87 85 -86 0
87 -85 86 0
-87 85 86 0
-87 -85 -86 0
-88 85 0
-88 86 0
88 -85 -86 0
89 -85 87 0
-89 85 87 0
-90 87 0
89 -90 -85 0
-89 -90 85 0
89 90 85 -87 0
-89 90 -85 -87 0
-91 87 0
89 -91 85 0
-89 -91 -85 0
89 91 -85 -87 0
-89 91 85 -87 0
-92 89 0
-92 87 0
-92 -85 0
92 -89 85 -87 0
93 89 -87 0
93 -89 87 0
-93 89 87 0
-93 -89 -87 0
-94 89 0
-94 87 0
94 -89 -87 0
95 89 -83 0
95 -89 83 0
-95 89 83 0
-95 -89 -83 0
96 93 -84 0
96 -93 84 0
-96 93 84 0
-96 -93 -84 0
-97 89 0
-97 84 0
-97 83 -93 0
-97 -83 93 0
97 -89 83 93 -84 0
97 -89 -83 -93 -84 0
98 95 -81 0
98 -95 81 0
-98 95 81 0
-98 -95 -81 0
99 84 -82 0
99 -84 82 0
-99 84 82 0
-99 -84 -82 0
-100 95 0
-100 82 0
-100 81 -84 0
-100 -81 84 0
100 -95 81 84 -82 0
100 -95 -81 -84 -82 0
101 98 -79 0
101 -98 79 0
-101 98 79 0
-101 -98 -79 0
102 82 -80 0
102 -82 80 0
-102 82 80 0
-102 -82 -80 0
-103 98 0
-103 80 0
-103 79 -82 0
-103 -79 82 0
103 -98 79 82 -80 0
103 -98 -79 -82 -80 0
104 101 -77 0
104 -101 77 0
-104 101 77 0
-104 -101 -77 0
105 80 -78 0
105 -80 78 0
-105 80 78 0
-105 -80 -78 0
-106 101 0
-106 78 0
-106 77 -80 0
-106 -77 80 0
106 -101 77 80 -78 0
106 -101 -77 -80 -78 0
107 104 -75 0
107 -104 75 0
-107 104 75 0
-107 -104 -75 0
108 78 -76 0
108 -78 76 0
-108 78 76 0
-108 -78 -76 0
-109 104 0
-109 76 0
-109 75 -78 0
-109 -75 78 0
109 -104 75 78 -76 0
109 -104 -75 -78 -76 0
110 107 -73 0
110 -107 73 0
-110 107 73 0
-110 -107 -73 0
111 76 -74 0
111 -76 74 0
-111 76 74 0
-111 -76 -74 0
-112 107 0
-112 74 0
-112 73 -76 0
-112 -73 76 0
112 -107 73 76 -74 0
112 -107 -73 -76 -74 0
113 110 -71 0
113 -110 71 0
-113 110 71 0
-113 -110 -71 0
114 74 -72 0
114 -74 72 0
-114 74 72 0
-114 -74 -72 0
-115 110 0
-115 72 0
-115 71 -74 0
-115 -71 74 0
115 -110 71 74 -72 0
115 -110 -71 -74 -72 0
116 113 -69 0
116 -113 69 0
-116 113 69 0
-116 -113 -69 0
117 72 -70 0
117 -72 70 0
-117 72 70 0
-117 -72 -70 0
-118 113 0
-118 70 0
-118 69 -72 0
-118 -69 72 0
118 -113 69 72 -70 0
118 -113 -69 -72 -70 0
119 116 -67 0
119 -116 67 0
-119 116 67 0
-119 -116 -67 0
120 70 -68 0
120 -70 68 0
-120 70 68 0
-120 -70 -68 0
-121 116 0
-121 68 0
-121 67 -70 0
-121 -67 70 0
121 -116 67 70 -68 0
121 -116 -67 -70 -68 0
122 119 -65 0
122 -119 65 0
-122 119 65 0
-122 -119 -65 0
123 68 -66 0
123 -68 66 0
-123 68 66 0
-123 -68 -66 0
-124 119 0
-124 66 0
-124 65 -68 0
-124 -65 68 0
124 -119 65 68 -66 0
124 -119 -65 -68 -66 0
125 122 -63 0
125 -122 63 0
-125 122 63 0
-125 -122 -63 0
126 66 -64 0
126 -66 64 0
-126 66 64 0
-126 -66 -64 0
-127 122 0
-127 64 0
-127 63 -66 0
-127 -63 66 0
127 -122 63 66 -64 0
127 -122 -63 -66 -64 0
128 125 -61 0
128 -125 61 0
-128 125 61 0
-128 -125 -61 0
129 64 -62 0
129 -64 62 0
-129 64 62 0
-129 -64 -62 0
-130 125 0
-130 62 0
-130 61 -64 0
-130 -61 64 0
130 -125 61 64 -62 0
130 -125 -61 -64 -62 0
131 128 -59 0
131 -128 59 0
-131 128 59 0
-131 -128 -59 0
132 62 -60 0
132 -62 60 0
-132 62 60 0
-132 -62 -60 0
-133 128 0
-133 60 0
-133 59 -62 0
-133 -59 62 0
133 -128 59 62 -60 0
133 -128 -59 -62 -60 0
134 131 -57 0
134 -131 57 0
-134 131 57 0
-134 -131 -57 0
135 60 -58 0
135 -60 58 0
-135 60 58 0
-135 -60 -58 0
-136 131 0
-136 58 0
-136 57 -60 0
-136 -57 60 0
136 -131 57 60 -58 0
136 -131 -57 -60 -58 0
137 134 -55 0
137 -134 55 0
-137 134 55 0
-137 -134 -55 0
138 58 -56 0
138 -58 56 0
-138 58 56 0
-138 -58 -56 0
-139 134 0
-139 56 0
-139 55 -58 0
-139 -55 58 0
139 -134 55 58 -56 0
139 -134 -55 -58 -56 0
140 137 -53 0
140 -137 53 0
-140 137 53 0
-140 -137 -53 0
141 56 -54 0
141 -56 54 0
-141 56 54 0
-141 -56 -54 0
-142 137 0
-142 54 0
-142 53 -56 0
-142 -53 56 0
142 -137 53 56 -54 0
142 -137 -53 -56 -54 0
143 140 -51 0
143 -140 51 0
-143 140 51 0
-143 -140 -51 0
144 54 -52 0
144 -54 52 0
-144 54 52 0
-144 -54 -52 0
-145 140 0
-145 52 0
-145 51 -54 0
-145 -51 54 0
145 -140 51 54 -52 0
145 -140 -51 -54 -52 0
146 143 -49 0
146 -143 49 0
-146 143 49 0
-146 -143 -49 0
147 52 -50 0
147 -52 50 0
-147 52 50 0
-147 -52 -50 0
-148 143 0
-148 50 0
-148 49 -52 0
-148 -49 52 0
148 -143 49 52 -50 0
148 -143 -49 -52 -50 0
149 146 -47 0
149 -146 47 0
-149 146 47 0
-149 -146 -47 0
150 50 -48 0
150 -50 48 0
-150 50 48 0
-150 -50 -48 0
-151 146 0
-151 48 0
-151 47 -50 0
-151 -47 50 0
151 -146 47 50 -48 0
151 -146 -47 -50 -48 0
152 149 -45 0
152 -149 45 0
-152 149 45 0
-152 -149 -45 0
153 48 -46 0
153 -48 46 0
-153 48 46 0
-153 -48 -46 0
-154 149 0
-154 46 0
-154 45 -48 0
-154 -45 48 0
154 -149 45 48 -46 0
154 -149 -45 -48 -46 0
155 152 -43 0
155 -152 43 0
-155 152 43 0
-155 -152 -43 0
156 46 -44 0
156 -46 44 0
-156 46 44 0
-156 -46 -44 0
-157 152 0
-157 44 0
-157 43 -46 0
-157 -43 46 0
157 -152 43 46 -44 0
157 -152 -43 -46 -44 0
158 155 -41 0
158 -155 41 0
-158 155 41 0
-158 -155 -41 0
159 44 -42 0
159 -44 42 0
-159 44 42 0
-159 -44 -42 0
-160 155 0
-160 42 0
-160 41 -44 0
-160 -41 44 0
160 -155 41 44 -42 0
160 -155 -41 -44 -42 0
161 158 -39 0
161 -158 39 0
-161 158 39 0
-161 -158 -39 0
162 42 -40 0
162 -42 40 0
-162 42 40 0
-162 -42 -40 0
-163 158 0
-163 40 0
-163 39 -42 0
-163 -39 42 0
163 -158 39 42 -40 0
163 -158 -39 -42 -40 0
164 161 -37 0
164 -161 37 0
-164 161 37 0
-164 -161 -37 0
165 40 -38 0
165 -40 38 0
-165 40 38 0
-165 -40 -38 0
-166 161 0
-166 38 0
-166 37 -40 0
-166 -37 40 0
166 -161 37 40 -38 0
166 -161 -37 -40 -38 0
167 164 -35 0
167 -164 35 0
-167 164 35 0
-167 -164 -35 0
168 38 -36 0
168 -38 36 0
-168 38 36 0
-168 -38 -36 0
-169 164 0
-169 36 0
-169 35 -38 0
-169 -35 38 0
169 -164 35 38 -36 0
169 -164 -35 -38 -36 0
170 167 -33 0
170 -167 33 0
-170 167 33 0
-170 -167 -33 0
171 36 -34 0
171 -36 34 0
-171 36 34 0
-171 -36 -34 0
-172 167 0
-172 34 0
-172 33 -36 0
-172 -33 36 0
172 -167 33 36 -34 0
172 -167 -33 -36 -34 0
173 170 -31 0
173 -170 31 0
-173 170 31 0
-173 -170 -31 0
174 34 -32 0
174 -34 32 0
-174 34 32 0
-174 -34 -32 0
-175 170 0
-175 32 0
-175 31 -34 0
-175 -31 34 0
175 -170 31 34 -32 0
175 -170 -31 -34 -32 0
176 173 -29 0
176 -173 29 0
-176 173 29 0
-176 -173 -29 0
177 32 -30 0
177 -32 30 0
-177 32 30 0
-177 -32 -30 0
-178 173 0
-178 30 0
-178 29 -32 0
-178 -29 32 0
178 -173 29 32 -30 0
178 -173 -29 -32 -30 0
179 176 -27 0
179 -176 27 0
-179 176 27 0
-179 -176 -27 0
180 30 -28 0
180 -30 28 0
-180 30 28 0
-180 -30 -28 0
-181 176 0
-181 28 0
-181 27 -30 0
-181 -27 30 0
181 -176 27 30 -28 0
181 -176 -27 -30 -28 0
182 179 -25 0
182 -179 25 0
-182 179 25 0
-182 -179 -25 0
183 28 -26 0
183 -28 26 0
-183 28 26 0
-183 -28 -26 0
-184 179 0
-184 26 0
-184 25 -28 0
-184 -25 28 0
184 -179 25 28 -26 0
184 -179 -25 -28 -26 0
185 182 -23 0
185 -182 23 0
-185 182 23 0
-185 -182 -23 0
186 26 -24 0
186 -26 24 0
-186 26 24 0
-186 -26 -24 0
-187 182 0
-187 24 0
-187 23 -26 0
-187 -23 26 0
187 -182 23 26 -24 0
187 -182 -23 -26 -24 0
188 185 -21 0
188 -185 21 0
-188 185 21 0
-188 -185 -21 0
189 24 -22 0
189 -24 22 0
-189 24 22 0
-189 -24 -22 0
-190 185 0
-190 22 0
-190 21 -24 0
-190 -21 24 0
190 -185 21 24 -22 0
190 -185 -21 -24 -22 0
191 188 -19 0
191 -188 19 0
-191 188 19 0
-191 -188 -19 0
192 22 -20 0
192 -22 20 0
-192 22 20 0
-192 -22 -20 0
-193 188 0
-193 20 0
-193 19 -22 0
-193 -19 22 0
193 -188 19 22 -20 0
193 -188 -19 -22 -20 0
194 191 -17 0
194 -191 17 0
-194 191 17 0
-194 -191 -17 0
195 20 -18 0
195 -20 18 0
-195 20 18 0
-195 -20 -18 0
-196 191 0
-196 18 0
-196 17 -20 0
-196 -17 20 0
196 -191 17 20 -18 0
196 -191 -17 -20 -18 0
197 194 -15 0
197 -194 15 0
-197 194 15 0
-197 -194 -15 0
198 18 -16 0
198 -18 16 0
-198 18 16 0
-198 -18 -16 0
-199 194 0
-199 16 0
-199 15 -18 0
-199 -15 18 0
199 -194 15 18 -16 0
199 -194 -15 -18 -16 0
200 197 -13 0
200 -197 13 0
-200 197 13 0
-200 -197 -13 0
201 16 -14 0
201 -16 14 0
-201 16 14 0
-201 -16 -14 0
-202 197 0
-202 14 0
-202 13 -16 0
-202 -13 16 0
202 -197 13 16 -14 0
202 -197 -13 -16 -14 0
203 200 -11 0
203 -200 11 0
-203 200 11 0
-203 -200 -11 0
204 14 -12 0
204 -14 12 0
-204 14 12 0
-204 -14 -12 0
-205 200 0
-205 12 0
-205 11 -14 0
-205 -11 14 0
205 -200 11 14 -12 0
205 -200 -11 -14 -12 0
206 203 -9 0
206 -203 9 0
-206 203 9 0
-206 -203 -9 0
207 12 -10 0
207 -12 10 0
-207 12 10 0
-207 -12 -10 0
-208 203 0
-208 10 0
-208 9 -12 0
-208 -9 12 0
208 -203 9 12 -10 0
208 -203 -9 -12 -10 0
209 206 -7 0
209 -206 7 0
-209 206 7 0
-209 -206 -7 0
210 10 -8 0
210 -10 8 0
-210 10 8 0
-210 -10 -8 0
-211 206 0
-211 8 0
-211 7 -10 0
-211 -7 10 0
211 -206 7 10 -8 0
211 -206 -7 -10 -8 0
212 209 -5 0
212 -209 5 0
-212 209 5 0
-212 -209 -5 0
213 8 -6 0
213 -8 6 0
-213 8 6 0
-213 -8 -6 0
-214 209 0
-214 6 0
-214 5 -8 0
-214 -5 8 0
214 -209 5 8 -6 0
214 -209 -5 -8 -6 0
215 212 -3 0
215 -212 3 0
-215 212 3 0
-215 -212 -3 0
216 6 -4 0
216 -6 4 0
-216 6 4 0
-216 -6 -4 0
-217 212 0
-217 4 0
-217 3 -6 0
-217 -3 6 0
217 -212 3 6 -4 0
217 -212 -3 -6 -4 0
218 215 -1 0
218 -215 1 0
-218 215 1 0
-218 -215 -1 0
219 4 -2 0
219 -4 2 0
-219 4 2 0
-219 -4 -2 0
-220 215 0
-220 2 0
-220 1 -4 0
-220 -1 4 0
220 -215 1 4 -2 0
220 -215 -1 -4 -2 0
-218 0
-215 0
-219 0
-212 0
-216 0
-209 0
-213 0
-206 0
-210 0
-203 0
-207 0
-200 0
-204 0
-197 0
-201 0
-194 0
-198 0
-191 0
-195 0
-188 0
-192 0
-185 0
-189 0
-182 0
-186 0
-179 0
-183 0
-176 0
-180 0
-173 0
-177 0
-170 0
-174 0
-167 0
-171 0
-164 0
-168 0
-161 0
-165 0
-158 0
-162 0
-155 0
-159 0
-152 0
-156 0
-149 0
-153 0
-146 0
-150 0
-143 0
-147 0
-140 0
-144 0
-137 0
-141 0
-134 0
-138 0
-131 0
-135 0
-128 0
-132 0
-125 0
-129 0
-122 0
-126 0
-119 0
-123 0
-116 0
-120 0
-113 0
-117 0
-110 0
-114 0
-107 0
-111 0
-104 0
-108 0
-101 0
-105 0
-98 0
-102 0
-95 0
-99 0
-89 0
-96 0
